Version identifier: 12.10.0.0 | 2019-11-26 | 843d4de
CPXPARAM_WorkMem                                 28672
Tried aggregator 2 times.
Aggregator did 30 substitutions.
Reduced MIP has 108 rows, 135 columns, and 507 nonzeros.
Reduced MIP has 135 binaries, 0 generals, 0 SOSs, and 0 indicators.
Presolve time = 0,00 sec. (0,47 ticks)
Found incumbent of value 90,000000 after 0,00 sec. (0,81 ticks)
Probing time = 0,00 sec. (0,15 ticks)
Tried aggregator 1 time.
Detecting symmetries...
MIP Presolve eliminated 18 rows and 0 columns.
MIP Presolve added 36 rows and 0 columns.
Reduced MIP has 126 rows, 135 columns, and 525 nonzeros.
Reduced MIP has 135 binaries, 0 generals, 0 SOSs, and 0 indicators.
Presolve time = 0,00 sec. (0,58 ticks)
Probing time = 0,00 sec. (0,15 ticks)
Clique table members: 342.
MIP emphasis: balance optimality and feasibility.
MIP search method: dynamic search.
Parallel mode: deterministic, using up to 16 threads.
Root relaxation solution time = 0,00 sec. (0,30 ticks)

        Nodes                                         Cuts/
   Node  Left     Objective  IInf  Best Integer    Best Bound    ItCnt     Gap

*     0+    0                           90,0000        0,0000           100,00%
*     0+    0                           68,0000        0,0000           100,00%
*     0+    0                           62,0000        0,0000           100,00%
      0     0       30,0000    80       62,0000       30,0000       41   51,61%
      0     0       30,0000    80       62,0000     Cuts: 119       64   51,61%
      0     0       30,0000    80       62,0000     Cuts: 131      130   51,61%
      0     0       30,0000    80       62,0000     Cuts: 100      183   51,61%
      0     0       30,0000    80       62,0000     Cuts: 136      257   51,61%
*     0+    0                           61,0000       30,0000            50,82%
*     0+    0                           59,0000       30,0000            49,15%
      0     2       30,0000   110       59,0000       33,9250      257   42,50%
Elapsed time = 0,14 sec. (19,79 ticks, tree = 0,02 MB, solutions = 5)
*  2217+  869                           58,0000       47,0804            18,83%

Clique cuts applied:  47
Cover cuts applied:  191
Mixed integer rounding cuts applied:  11
Zero-half cuts applied:  7
Gomory fractional cuts applied:  1

Root node processing (before b&c):
  Real time             =    0,13 sec. (19,72 ticks)
Parallel b&c, 16 threads:
  Real time             =    0,30 sec. (67,67 ticks)
  Sync time (average)   =    0,19 sec.
  Wait time (average)   =    0,00 sec.
                          ------------
Total (root+branch&cut) =    0,43 sec. (87,39 ticks)
